744899
744899
744899
740007
738829
731023
719799
719799
711232
711232
702634
702634
702634
700270
697894
696251
696251
694913
694913
684298
684298
679298
679298
679298
683460
683460
683460
677242
677242
677242
677242
677242
671331
671331
671331
670425
669588
669588
669588
649040
649040
649040
649040
649040
649040
646992
646992
641131
641131
635602
635602
635602
635602
635602
635602
635602
629223
629223
629223
629223
629223
629223
629223
629223
629223
629223
629223
629223
629223
629223
629223
629223
629223
629223
629223
629223
629223
629223
629223
629223
629223
629223
629223
629223
629223
629223
629223
629223
629223
629223
629223
629223
629223
629223
629223
629223
629223
629223
629223
629223
